204166
46,102,14,90,78,42,34,74,31,62,6,52,83,32,81,71,44,24,85,45,76,5,39,55,19,15,98,49,79,88,36,3,60,63,89,16,20,68,87,12,64,51,4,54,28,29,97,30,105,96,7,61,21,50,99,67,18,41,80,25,33,82,56,92,11,22,91,8,1,48,38,72,47,84,69,93,77,2,100,103,66,40,10,94,53,37,70,35,104,95,59,17,0,86,27,26,9,43,58,65,57,75,23,101,73,13